solution/p_2_4.txt_600.col.log
CPXPARAM_TimeLimit                               600
CPXPARAM_WorkMem                                 4096
CPXPARAM_Threads                                 1
Found incumbent of value 0,000000 after 0,00 sec. (0,00 ticks)
Tried aggregator 1 time.
MIP Presolve eliminated 4 rows and 30 columns.
Reduced MIP has 6 rows, 14 columns, and 24 nonzeros.
Reduced MIP has 14 binaries, 0 generals, 0 SOSs, and 0 indicators.
Presolve time = 0,00 sec. (0,06 ticks)
Probing time = 0,00 sec. (0,00 ticks)
Tried aggregator 2 times.
MIP Presolve eliminated 2 rows and 8 columns.
MIP Presolve added 1 rows and 1 columns.
MIP Presolve modified 16 coefficients.
Aggregator did 3 substitutions.
Reduced MIP has 2 rows, 4 columns, and 6 nonzeros.
Reduced MIP has 3 binaries, 1 generals, 0 SOSs, and 0 indicators.
Presolve time = 0,00 sec. (0,03 ticks)
Probing time = 0,00 sec. (0,00 ticks)
Tried aggregator 1 time.
MIP Presolve eliminated 1 rows and 1 columns.
MIP Presolve added 1 rows and 1 columns.
Reduced MIP has 2 rows, 4 columns, and 6 nonzeros.
Reduced MIP has 3 binaries, 1 generals, 0 SOSs, and 0 indicators.
Presolve time = 0,00 sec. (0,00 ticks)
Probing time = 0,00 sec. (0,00 ticks)
MIP emphasis: balance optimality and feasibility.
MIP search method: dynamic search.
Parallel mode: none, using 1 thread.
Root relaxation solution time = 0,00 sec. (0,00 ticks)

        Nodes                                         Cuts/
   Node  Left     Objective  IInf  Best Integer    Best Bound    ItCnt     Gap

*     0+    0                           79,0000      101,0000            27,85%
*     0     0      integral     0       99,0000       99,0000        1    0,00%
Elapsed time = 0,00 sec. (1,10 ticks, tree = 0,00 MB, solutions = 3)

Root node processing (before b&c):
  Real time             =    0,00 sec. (1,10 ticks)
Sequential b&c:
  Real time             =    0,00 sec. (0,00 ticks)
                          ------------
Total (root+branch&cut) =    0,00 sec. (1,10 ticks)
